25
1 0 1
2 0 5
2 1 22
3 0 2
3 1 4
3 2 46
4 0 39
4 1 41
4 2 35
4 3 2
5 0 50
5 1 25
5 2 10
5 3 13
5 4 43
6 0 28
6 1 24
6 2 14
6 3 7
6 4 37
6 5 45
7 0 16
7 1 49
7 2 7
7 3 17
7 4 28
7 5 1
7 6 33
8 0 44
8 1 11
8 2 14
8 3 4
8 4 39
8 5 22
8 6 12
8 7 42
9 0 33
9 1 47
9 2 21
9 3 33
9 4 6
9 5 49
9 6 29
9 7 40
9 8 3
10 0 39
10 1 13
10 2 41
10 3 37
10 4 30
10 5 15
10 6 45
10 7 47
10 8 26
10 9 24
11 0 1
11 1 50
11 2 45
11 3 29
11 4 43
11 5 35
11 6 22
11 7 24
11 8 47
11 9 50
11 10 40
12 0 36
12 1 17
12 2 8
12 3 4
12 4 15
12 5 20
12 6 49
12 7 24
12 8 12
12 9 37
12 10 49
12 11 4
13 0 47
13 1 45
13 2 35
13 3 30
13 4 49
13 5 7
13 6 31
13 7 25
13 8 21
13 9 22
13 10 17
13 11 27
13 12 49
14 0 30
14 1 45
14 2 16
14 3 21
14 4 50
14 5 22
14 6 35
14 7 14
14 8 25
14 9 39
14 10 25
14 11 34
14 12 15
14 13 14
15 0 43
15 1 35
15 2 10
15 3 8
15 4 3
15 5 43
15 6 6
15 7 21
15 8 39
15 9 18
15 10 45
15 11 33
15 12 44
15 13 17
15 14 1
16 0 31
16 1 31
16 2 13
16 3 31
16 4 17
16 5 19
16 6 12
16 7 31
16 8 45
16 9 35
16 10 31
16 11 23
16 12 33
16 13 48
16 14 28
16 15 8
17 0 50
17 1 7
17 2 9
17 3 5
17 4 9
17 5 24
17 6 26
17 7 34
17 8 46
17 9 41
17 10 20
17 11 20
17 12 28
17 13 12
17 14 48
17 15 29
17 16 2
18 0 2
18 1 27
18 2 17
18 3 14
18 4 7
18 5 50
18 6 34
18 7 8
18 8 36
18 9 32
18 10 47
18 11 35
18 12 19
18 13 31
18 14 32
18 15 2
18 16 15
18 17 17
19 0 38
19 1 44
19 2 11
19 3 39
19 4 50
19 5 7
19 6 50
19 7 33
19 8 11
19 9 29
19 10 20
19 11 9
19 12 24
19 13 33
19 14 47
19 15 39
19 16 17
19 17 6
19 18 25
20 0 31
20 1 49
20 2 36
20 3 26
20 4 17
20 5 33
20 6 25
20 7 5
20 8 11
20 9 35
20 10 4
20 11 35
20 12 7
20 13 19
20 14 13
20 15 38
20 16 44
20 17 6
20 18 37
20 19 33
21 0 16
21 1 28
21 2 31
21 3 41
21 4 47
21 5 6
21 6 14
21 7 4
21 8 34
21 9 39
21 10 21
21 11 6
21 12 43
21 13 33
21 14 47
21 15 2
21 16 37
21 17 37
21 18 12
21 19 18
21 20 5
22 0 49
22 1 27
22 2 28
22 3 41
22 4 19
22 5 20
22 6 29
22 7 13
22 8 8
22 9 7
22 10 23
22 11 48
22 12 38
22 13 9
22 14 7
22 15 6
22 16 12
22 17 18
22 18 10
22 19 35
22 20 35
22 21 39
23 0 43
23 1 4
23 2 32
23 3 36
23 4 44
23 5 38
23 6 4
23 7 32
23 8 36
23 9 25
23 10 10
23 11 22
23 12 14
23 13 39
23 14 41
23 15 18
23 16 26
23 17 25
23 18 33
23 19 14
23 20 49
23 21 30
23 22 34
24 0 7
24 1 21
24 2 25
24 3 21
24 4 49
24 5 23
24 6 44
24 7 27
24 8 37
24 9 10
24 10 14
24 11 48
24 12 29
24 13 32
24 14 10
24 15 39
24 16 41
24 17 19
24 18 48
24 19 33
24 20 16
24 21 46
24 22 19
24 23 42
